60

C         -3.29600       -1.57800       -1.23100
O         -4.97800        1.59300       -0.82300
C         -5.76100        0.92200       -0.07600
O         -5.57700        0.74000        1.15700
C         -6.97400        0.28500       -0.75600
C         -8.13700       -0.07900        0.16200
O         -2.70000        2.69200        0.11000
C          2.74800        1.44100        0.96800
N          3.35000        0.54900        1.96400
C          3.59400        2.69000        0.74900
C          2.94300        3.69100       -0.20900
C          3.85400        4.85300       -0.62300
C          4.30100        5.75900        0.52800
O          1.33800       -2.29600        2.76000
O         -1.37000       -2.96400        2.68800
S          3.84000       -2.78300       -1.74500
C          3.65300       -2.91100        0.06900
C          4.91700       -3.55000        0.64000
H          5.07000       -4.56400        0.24600
H          2.76800       -3.52700        0.27400
H          3.50400       -1.90000        0.47100
H         -2.91400       -1.04400       -2.11100
H         -8.52000        0.80800        0.68700
H         -6.59700       -0.61700       -1.26500
H         -7.30500        0.96400       -1.55500
H          4.92100        5.21500        1.25500
H          3.32600        5.46100       -1.37300
H          4.74300        4.44400       -1.13000
H          2.02600        4.09100        0.25600
H          2.62000        3.15500       -1.11600
H          4.58000        2.39000        0.35900
H          3.77400        3.16800        1.72500
H          1.72400        1.75100        1.25100
H          2.66700        0.88500        0.02300
H          3.32400        0.99600        2.87800
H          2.80100       -0.30300        2.04800
H         -3.53700        2.24900       -0.19300
H         -1.97900        2.11200       -0.18300
H          1.88300       -2.94000        3.23200
H          1.68400       -2.29900        1.85700
H         -1.85000       -2.20300        3.04100
H         -0.42200       -2.71300        2.73600
H          5.80900       -2.94700        0.42100
H          4.81600       -3.62000        1.73100
H          4.89500        6.60600        0.15400
H          3.43200        6.16700        1.06700
H         -7.83200       -0.81400        0.92000
H         -8.96200       -0.51400       -0.41900
H         -3.08900       -2.65000       -1.35200
C         -2.67500       -1.03800        0.04700
H         -4.38400       -1.43400       -1.19600
S         -0.86400       -1.20900        0.17100
H         -2.91800        0.01800        0.20700
H         -3.02400       -1.58700        0.93400
O         -0.35300       -0.27400       -1.14800
O         -0.35700        1.16800       -0.86600
H          0.49800        1.29700       -0.41600
O          2.34300       -2.21600       -2.22700
O          2.27900       -0.73700       -2.14300
H          1.39800       -0.62300       -1.72300
