60

O         -4.66500        1.22500        0.40000
C         -3.29600       -1.57800       -1.23100
C         -5.63200        0.42900        0.62500
O         -5.64500       -0.42600        1.55000
C         -6.82500        0.52600       -0.33000
C         -8.13700       -0.07900        0.16200
O         -2.08000        1.12500        1.12500
C          1.48000        2.25200        1.27500
N          1.91200        0.85300        1.34500
C          2.51900        3.16200        0.63900
C          2.01200        4.60100        0.53400
C          2.96700        5.55400       -0.18900
C          4.30100        5.75900        0.52800
O          1.02700       -2.42100        1.55200
O         -0.52400       -0.40600        2.83500
S          4.17000       -1.57100        2.39100
C          4.73000       -2.03800        0.71200
C          4.91700       -3.55000        0.64000
H          5.68400       -3.89400        1.34700
H          5.67700       -1.51300        0.52700
H          3.98300       -1.69300       -0.01600
H         -3.22800       -0.53200       -1.55200
H         -8.47100        0.40500        1.09200
H         -6.50300        0.02800       -1.26100
H         -6.95800        1.58500       -0.59000
H          4.88100        4.82600        0.58100
H          2.46800        6.52800       -0.30800
H          3.15000        5.17400       -1.20700
H          1.80800        4.98600        1.54700
H          1.04500        4.59300        0.00600
H          2.76300        2.78900       -0.36800
H          3.44400        3.11400        1.23300
H          1.29500        2.54700        2.31800
H          0.52000        2.32400        0.73900
H          3.38300        0.46200        1.98000
H          1.19100        0.31900        1.83700
H         -3.04700        1.07800        0.90400
H         -1.60800        0.95300        0.29000
H          1.92200       -2.12800        1.81600
H          0.90900       -2.07300        0.65100
H         -1.12300        0.04800        2.20200
H         -0.13300       -1.16500        2.36000
H          3.97900       -4.08300        0.85300
H          5.23700       -3.82600       -0.37400
H          4.92000        6.50400        0.00600
H          4.14200        6.11400        1.55800
H         -8.03300       -1.15500        0.36000
H         -8.92500        0.05200       -0.59200
H         -3.42200       -2.21100       -2.12000
C         -2.07200       -1.98700       -0.43200
H         -4.18800       -1.68100       -0.60000
S         -0.51600       -1.95200       -1.37900
H         -1.94400       -1.37000        0.46500
H         -2.12700       -3.03700       -0.10500
O         -0.57500       -0.43300       -2.11800
O         -0.41000        0.67500       -1.18200
H          0.52000        0.55900       -0.84200
O          4.27500        0.11100        2.32400
O          1.90900        0.26200        0.03600
H          2.80700        0.35900       -0.31500
